9972
9524
3043
8243
847
2410
9594
5221
8682
5927
5854
3068
980
8376
3574
2299
8351
6394
5581
3728
2925
9866
5151
3817
7505
5040
8636
2262
3490
2850
8157
5219
8904
6029
1769
4474
9279
9993
6688
1567
8996
1784
6005
2826
7236
1288
8644
3384
416
2563
7359
